data;

param num_top:=6;

#nodes and edges of the physical network
param n := 10;

set E := (1,2) (1,3) (1,7) (2,4) (2,7) (3,5) (4,8) (5,6) (5,7) (6,7) (6,9) (7,8) (7,9) (8,10) (9,10) ;

#nodes and edges of the virtual networks
set Nl[1] := 2 4 9 7 ;
set Nl[2] := 7 3 5 8 ;
set Nl[3] := 7 9 4 1 3 ;
set Nl[4] := 7 10 1 5 9 ;
set Nl[5] := 7 10 9 8 ;
set Nl[6] := 2 9 10 6 7 ;

set El[1] := (2,4) (4,9) (7,9) (2,7) ;
set El[2] := (3,7) (3,5) (5,8) (7,8) (5,7) (3,8) ;
set El[3] := (7,9) (4,9) (1,4) (1,3) (3,7) ;
set El[4] := (7,10) (1,10) (1,5) (5,9) (7,9) (9,10) (1,9) (5,7) (1,7) (5,10) ;
set El[5] := (7,10) (9,10) (8,9) (7,8) (7,9) (8,10) ;
set El[6] := (2,9) (9,10) (6,10) (6,7) (2,7) ;
